2076, 0, 0, 66, 0
2077, 0, 1, 70, 4
2078, 0, 2, 76, 2
2079, 0, 3, 90, 3
2080, 0, 4, 46, 1
2081, 1, 0, 52, 1
2082, 1, 1, 34, 2
2083, 1, 2, 94, 0
2084, 1, 3, 44, 3
2085, 1, 4, 60, 4
2086, 2, 0, 32, 1
2087, 2, 1, 69, 0
2088, 2, 2, 68, 2
2089, 2, 3, 89, 3
2090, 2, 4, 38, 4
2091, 3, 0, 50, 1
2092, 3, 1, 91, 4
2093, 3, 2, 33, 2
2094, 3, 3, 83, 0
2095, 3, 4, 68, 3
